1, 19, 20, 38, 40, 41, 49, 48, 50, 43, 42, 39, 35, 34, 33, 1
1, 52, 30, 23, 25, 44, 29, 28, 27, 21, 22, 53, 15, 1
1, 14, 16, 4, 6, 5, 13, 9, 12, 11, 10, 8, 7, 3, 2, 18, 1
1, 17, 26, 31, 32, 24, 37, 47, 45, 46, 51, 36, 1
